\* Class_Selection *\
Maximize
OBJ: __dummy
Subject To
MaximumUnits: x_1 + 0.5 x_10 + x_11 + 0.5 x_12 + 0.5 x_14 + 0.5 x_16
 + 0.5 x_17 + 0.5 x_19 + 0.5 x_2 + 0.5 x_21 + 0.5 x_22 + x_23 + 0.5 x_24
 + 0.5 x_26 + 0.5 x_28 + x_29 + 0.5 x_3 + 0.5 x_30 + 0.5 x_32 + 0.5 x_34
 + 0.5 x_36 + 0.5 x_37 + 0.5 x_38 + 0.5 x_39 + x_4 + 0.5 x_7 + 0.5 x_8 <= 10
MinimumUnits: x_1 + 0.5 x_10 + x_11 + 0.5 x_12 + 0.5 x_14 + 0.5 x_16
 + 0.5 x_17 + 0.5 x_19 + 0.5 x_2 + 0.5 x_21 + 0.5 x_22 + x_23 + 0.5 x_24
 + 0.5 x_26 + 0.5 x_28 + x_29 + 0.5 x_3 + 0.5 x_30 + 0.5 x_32 + 0.5 x_34
 + 0.5 x_36 + 0.5 x_37 + 0.5 x_38 + 0.5 x_39 + x_4 + 0.5 x_7 + 0.5 x_8 >= 2
_C1: x_0 = 0
_C10: x_14 + x_2 <= 1
_C100: x_16 + x_4 <= 1
_C101: x_26 + x_4 <= 1
_C102: x_36 + x_4 <= 1
_C103: x_16 + x_4 <= 1
_C104: x_16 + x_26 <= 1
_C105: x_16 + x_36 <= 1
_C106: x_26 + x_4 <= 1
_C107: x_16 + x_26 <= 1
_C108: x_26 + x_36 <= 1
_C109: x_36 + x_4 <= 1
_C11: x_11 + x_14 <= 1
_C110: x_16 + x_36 <= 1
_C111: x_26 + x_36 <= 1
_C112: x_24 + x_6 <= 1
_C113: x_24 + x_6 <= 1
_C114: x_22 + x_9 <= 1
_C115: x_31 + x_9 <= 1
_C116: x_22 + x_9 <= 1
_C117: x_22 + x_31 <= 1
_C118: x_31 + x_9 <= 1
_C119: x_22 + x_31 <= 1
_C12: x_14 + x_29 <= 1
_C120: x_28 + x_7 <= 1
_C121: x_33 + x_7 <= 1
_C122: x_28 + x_7 <= 1
_C123: x_28 + x_33 <= 1
_C124: x_33 + x_7 <= 1
_C125: x_28 + x_33 <= 1
_C126: x_15 + x_3 <= 1
_C127: x_18 + x_3 <= 1
_C128: x_27 + x_3 <= 1
_C129: x_3 + x_35 <= 1
_C13: x_14 + x_30 <= 1
_C130: x_3 + x_37 <= 1
_C131: x_15 + x_3 <= 1
_C132: x_15 + x_18 <= 1
_C133: x_15 + x_27 <= 1
_C134: x_15 + x_35 <= 1
_C135: x_15 + x_37 <= 1
_C136: x_18 + x_3 <= 1
_C137: x_15 + x_18 <= 1
_C138: x_18 + x_27 <= 1
_C139: x_18 + x_35 <= 1
_C14: x_2 + x_29 <= 1
_C140: x_18 + x_37 <= 1
_C141: x_27 + x_3 <= 1
_C142: x_15 + x_27 <= 1
_C143: x_18 + x_27 <= 1
_C144: x_27 + x_35 <= 1
_C145: x_27 + x_37 <= 1
_C146: x_3 + x_35 <= 1
_C147: x_15 + x_35 <= 1
_C148: x_18 + x_35 <= 1
_C149: x_27 + x_35 <= 1
_C15: x_11 + x_29 <= 1
_C150: x_35 + x_37 <= 1
_C151: x_3 + x_37 <= 1
_C152: x_15 + x_37 <= 1
_C153: x_18 + x_37 <= 1
_C154: x_27 + x_37 <= 1
_C155: x_35 + x_37 <= 1
_C156: x_1 + x_12 <= 1
_C157: x_1 + x_16 <= 1
_C158: x_1 + x_26 <= 1
_C159: x_1 + x_12 <= 1
_C16: x_14 + x_29 <= 1
_C160: x_12 + x_16 <= 1
_C161: x_12 + x_26 <= 1
_C162: x_1 + x_16 <= 1
_C163: x_12 + x_16 <= 1
_C164: x_16 + x_26 <= 1
_C165: x_1 + x_26 <= 1
_C166: x_12 + x_26 <= 1
_C167: x_16 + x_26 <= 1
_C168: x_19 + x_8 <= 1
_C169: x_23 + x_8 <= 1
_C17: x_29 + x_30 <= 1
_C170: x_24 + x_8 <= 1
_C171: x_34 + x_8 <= 1
_C172: x_38 + x_8 <= 1
_C173: x_19 + x_8 <= 1
_C174: x_19 + x_23 <= 1
_C175: x_19 + x_24 <= 1
_C176: x_19 + x_34 <= 1
_C177: x_19 + x_38 <= 1
_C178: x_23 + x_8 <= 1
_C179: x_19 + x_23 <= 1
_C18: x_2 + x_30 <= 1
_C180: x_23 + x_24 <= 1
_C181: x_23 + x_34 <= 1
_C182: x_23 + x_38 <= 1
_C183: x_24 + x_8 <= 1
_C184: x_19 + x_24 <= 1
_C185: x_23 + x_24 <= 1
_C186: x_24 + x_34 <= 1
_C187: x_24 + x_38 <= 1
_C188: x_34 + x_8 <= 1
_C189: x_19 + x_34 <= 1
_C19: x_11 + x_30 <= 1
_C190: x_23 + x_34 <= 1
_C191: x_24 + x_34 <= 1
_C192: x_34 + x_38 <= 1
_C193: x_38 + x_8 <= 1
_C194: x_19 + x_38 <= 1
_C195: x_23 + x_38 <= 1
_C196: x_24 + x_38 <= 1
_C197: x_34 + x_38 <= 1
_C198: x_21 + x_31 <= 1
_C199: x_21 + x_31 <= 1
_C2: x_11 + x_2 <= 1
_C20: x_14 + x_30 <= 1
_C200: x_15 + x_3 <= 1
_C201: x_3 + x_35 <= 1
_C202: x_15 + x_3 <= 1
_C203: x_15 + x_35 <= 1
_C204: x_3 + x_35 <= 1
_C205: x_15 + x_35 <= 1
_C206: x_1 + x_12 <= 1
_C207: x_1 + x_12 <= 1
_C208: x_13 + x_8 <= 1
_C209: x_23 + x_8 <= 1
_C21: x_29 + x_30 <= 1
_C210: x_38 + x_8 <= 1
_C211: x_13 + x_8 <= 1
_C212: x_13 + x_23 <= 1
_C213: x_13 + x_38 <= 1
_C214: x_23 + x_8 <= 1
_C215: x_13 + x_23 <= 1
_C216: x_23 + x_38 <= 1
_C217: x_38 + x_8 <= 1
_C218: x_13 + x_38 <= 1
_C219: x_23 + x_38 <= 1
_C22: x_0 + x_5 <= 1
_C220: x_2 + x_28 <= 1
_C221: x_2 + x_28 <= 1
_C222: x_10 + x_5 <= 1
_C223: x_37 + x_5 <= 1
_C224: x_10 + x_5 <= 1
_C225: x_10 + x_37 <= 1
_C226: x_37 + x_5 <= 1
_C227: x_10 + x_37 <= 1
_C228: x_17 + x_25 <= 1
_C229: x_17 + x_25 <= 1
_C23: x_0 + x_10 <= 1
_C230: x_13 + x_19 <= 1
_C231: x_13 + x_34 <= 1
_C232: x_13 + x_19 <= 1
_C233: x_19 + x_34 <= 1
_C234: x_13 + x_34 <= 1
_C235: x_19 + x_34 <= 1
_C236: x_2 = 1
_C237: x_10 + x_13 + x_17 + x_19 + x_2 + x_21 + x_25 + x_28 + x_34 + x_37
 + x_5 >= 1
_C238: x_0 + x_10 + x_11 + x_14 + x_17 + x_2 + x_20 + x_22 + x_25 + x_29
 + x_30 + x_32 + x_36 + x_39 + x_4 + x_5 + x_6 + x_9 >= 1
_C24: x_0 + x_32 <= 1
_C25: x_0 + x_39 <= 1
_C26: x_0 + x_5 <= 1
_C27: x_10 + x_5 <= 1
_C28: x_32 + x_5 <= 1
_C29: x_39 + x_5 <= 1
_C3: x_14 + x_2 <= 1
_C30: x_0 + x_10 <= 1
_C31: x_10 + x_5 <= 1
_C32: x_10 + x_32 <= 1
_C33: x_10 + x_39 <= 1
_C34: x_0 + x_32 <= 1
_C35: x_32 + x_5 <= 1
_C36: x_10 + x_32 <= 1
_C37: x_32 + x_39 <= 1
_C38: x_0 + x_39 <= 1
_C39: x_39 + x_5 <= 1
_C4: x_2 + x_29 <= 1
_C40: x_10 + x_39 <= 1
_C41: x_32 + x_39 <= 1
_C42: x_17 + x_4 <= 1
_C43: x_25 + x_4 <= 1
_C44: x_36 + x_4 <= 1
_C45: x_17 + x_4 <= 1
_C46: x_17 + x_25 <= 1
_C47: x_17 + x_36 <= 1
_C48: x_25 + x_4 <= 1
_C49: x_17 + x_25 <= 1
_C5: x_2 + x_30 <= 1
_C50: x_25 + x_36 <= 1
_C51: x_36 + x_4 <= 1
_C52: x_17 + x_36 <= 1
_C53: x_25 + x_36 <= 1
_C54: x_20 + x_9 <= 1
_C55: x_22 + x_9 <= 1
_C56: x_20 + x_9 <= 1
_C57: x_20 + x_22 <= 1
_C58: x_22 + x_9 <= 1
_C59: x_20 + x_22 <= 1
_C6: x_11 + x_2 <= 1
_C60: x_11 + x_7 <= 1
_C61: x_14 + x_7 <= 1
_C62: x_29 + x_7 <= 1
_C63: x_33 + x_7 <= 1
_C64: x_11 + x_7 <= 1
_C65: x_11 + x_14 <= 1
_C66: x_11 + x_29 <= 1
_C67: x_11 + x_33 <= 1
_C68: x_14 + x_7 <= 1
_C69: x_11 + x_14 <= 1
_C7: x_11 + x_14 <= 1
_C70: x_14 + x_29 <= 1
_C71: x_14 + x_33 <= 1
_C72: x_29 + x_7 <= 1
_C73: x_11 + x_29 <= 1
_C74: x_14 + x_29 <= 1
_C75: x_29 + x_33 <= 1
_C76: x_33 + x_7 <= 1
_C77: x_11 + x_33 <= 1
_C78: x_14 + x_33 <= 1
_C79: x_29 + x_33 <= 1
_C8: x_11 + x_29 <= 1
_C80: x_0 + x_18 <= 1
_C81: x_0 + x_27 <= 1
_C82: x_0 + x_32 <= 1
_C83: x_0 + x_39 <= 1
_C84: x_0 + x_18 <= 1
_C85: x_18 + x_27 <= 1
_C86: x_18 + x_32 <= 1
_C87: x_18 + x_39 <= 1
_C88: x_0 + x_27 <= 1
_C89: x_18 + x_27 <= 1
_C9: x_11 + x_30 <= 1
_C90: x_27 + x_32 <= 1
_C91: x_27 + x_39 <= 1
_C92: x_0 + x_32 <= 1
_C93: x_18 + x_32 <= 1
_C94: x_27 + x_32 <= 1
_C95: x_32 + x_39 <= 1
_C96: x_0 + x_39 <= 1
_C97: x_18 + x_39 <= 1
_C98: x_27 + x_39 <= 1
_C99: x_32 + x_39 <= 1
Bounds
 __dummy = 0
Binaries
x_0
x_1
x_10
x_11
x_12
x_13
x_14
x_15
x_16
x_17
x_18
x_19
x_2
x_20
x_21
x_22
x_23
x_24
x_25
x_26
x_27
x_28
x_29
x_3
x_30
x_31
x_32
x_33
x_34
x_35
x_36
x_37
x_38
x_39
x_4
x_5
x_6
x_7
x_8
x_9
End
